15	15
6 1	1 1	12 1	4 1	5 1	11 1	8 1	9 1	3 1	2 1	7 1	14 1	10 1	13 1	0 1
3 1	4 1	1 1	2 1	10 1	14 1	7 1	9 1	0 1	13 1	12 1	8 1	11 1	5 1	6 1
13 1	2 1	14 1	7 1	5 1	1 1	10 1	12 1	11 1	0 1	9 1	3 1	6 1	8 1	4 1
6 1	8 1	9 1	1 1	7 1	3 1	2 1	0 1	5 1	14 1	10 1	13 1	12 1	11 1	4 1
6 1	10 1	11 1	2 1	7 1	13 1	4 1	1 1	9 1	5 1	8 1	12 1	0 1	3 1	14 1
9 1	1 1	0 1	13 1	6 1	2 1	7 1	12 1	14 1	3 1	10 1	4 1	5 1	8 1	11 1
4 1	2 1	3 1	7 1	0 1	14 1	5 1	6 1	8 1	13 1	10 1	12 1	11 1	9 1	1 1
10 1	2 1	5 1	1 1	0 1	12 1	6 1	14 1	3 1	7 1	9 1	8 1	11 1	4 1	13 1
13 1	6 1	3 1	8 1	11 1	0 1	5 1	7 1	10 1	1 1	14 1	12 1	4 1	9 1	2 1
3 1	7 1	12 1	5 1	4 1	0 1	9 1	6 1	1 1	2 1	11 1	13 1	14 1	8 1	10 1
7 1	1 1	0 1	3 1	12 1	6 1	4 1	11 1	14 1	8 1	5 1	9 1	2 1	10 1	13 1
0 1	13 1	4 1	7 1	10 1	11 1	14 1	9 1	12 1	6 1	3 1	8 1	2 1	1 1	5 1
6 1	11 1	1 1	7 1	4 1	3 1	13 1	14 1	0 1	8 1	2 1	10 1	9 1	5 1	12 1
7 1	10 1	13 1	4 1	1 1	2 1	0 1	12 1	14 1	9 1	5 1	6 1	3 1	8 1	11 1
14 1	10 1	7 1	9 1	0 1	2 1	1 1	8 1	12 1	3 1	6 1	13 1	5 1	4 1	11 1
